results/res_prop_muc/res_Cimatti_mathsat_cores/QF_LRA/pd_init_op_accs.induction.smt.smt2.res
unsat
( c104
  c105
  c181
  c182
  c199
  c201
  c202
  c245
  c359
  c387
  c44
  c457
  c459
  c460
  c47
  c476
  c48
  c480
  c483
  c487
  c49
  c493
  c494
  c496
  c497
  c5
  c501
  c510
  c511
  c516
  c554
  c555
  c556
  c557
  c558
  c559
  c91
  c95 )
